rc101_3
0 95 70 57 91 79 63 80 102 64 92 18 20 21 22 52 19 17 15 82 30 28 26 53 23 24 54 25 27 29 14 16 2 83 78 84 12 13 51 50 10 8 9 7 11 65 58 93 60 105 75 47 49 48 45 41 40 42 43 44 46 6 1 66 77 76 36 34 32 31 33 35 0